RT is False
Default write of storage_offers_DA.csv just to have a file (but constraint should be inactive)
Reading model...
...model read.
creating competitive generators file...
...competitive generators recorded.
Loading data...
.. day-ahead data with real-time VRE data read.
Compiling instance...
...instance created.
Creating Offer Mitigation (model will solve as dispatch if TRUE)...
NOTE: storage offers will not be mitigated
...storage offer mitigation file created
Converting model to MPEC...
...converted
NOTE: initial MIP solve with only storage competitive to get feasible solution
Solving...

Welcome to IBM(R) ILOG(R) CPLEX(R) Interactive Optimizer 12.9.0.0
  with Simplex, Mixed Integer & Barrier Optimizers
5725-A06 5725-A29 5724-Y48 5724-Y49 5724-Y54 5724-Y55 5655-Y21
Copyright IBM Corp. 1988, 2019.  All Rights Reserved.

Type 'help' for a list of available commands.
Type 'help' followed by a command name for more
information on commands.

CPLEX> Logfile 'cplex.log' closed.
Logfile 'C:\Users\llavin\Desktop\test919\logs\tmpll6p6hdy.cplex.log' open.
CPLEX> New value for parallel optimization mode: -1
CPLEX> New value for mixed integer optimality gap tolerance: 0.01
CPLEX> New value for integrality tolerance: 1e-09
CPLEX> New value for feasibility tolerance: 0.1
CPLEX> New value for deterministic time limit in ticks: 100000
CPLEX> Problem 'C:\Users\llavin\Desktop\test919\logs\tmpv6zjpflq.pyomo.lp' read.
Read time = 0.23 sec. (13.86 ticks)
CPLEX> Problem name         : C:\Users\llavin\Desktop\test919\logs\tmpv6zjpflq.pyomo.lp
Objective sense      : Maximize
Variables            :   53321  [Nneg: 1,  Box: 21806,  Free: 4416,
                                 Binary: 27098]
Objective nonzeros   :    8978
Linear constraints   :  122164  [Less: 40983,  Greater: 58612,  Equal: 22569]
  Nonzeros           :  288503
  RHS nonzeros       :   66980

Variables            : Min LB: -5000.000        Max UB: 1000000.       
Objective nonzeros   : Min   : 0.008333333      Max   : 723.7333       
Linear constraints   :
  Nonzeros           : Min   : 0.008333333      Max   : 1000000.       
  RHS nonzeros       : Min   : 0.008333333      Max   : 1000000.       
CPLEX> CPXPARAM_Parallel                                -1
CPXPARAM_Simplex_Tolerances_Feasibility          0.10000000000000001
CPXPARAM_DetTimeLimit                            100000
CPXPARAM_MIP_Tolerances_MIPGap                   0.01
CPXPARAM_MIP_Tolerances_Integrality              1.0000000000000001e-09
Tried aggregator 3 times.
MIP Presolve eliminated 88101 rows and 18957 columns.
MIP Presolve added 3373 rows and 0 columns.
MIP Presolve modified 22958 coefficients.
Aggregator did 12864 substitutions.
Reduced MIP has 24572 rows, 20944 columns, and 68849 nonzeros.
Reduced MIP has 8285 binaries, 0 generals, 0 SOSs, and 0 indicators.
Presolve time = 0.30 sec. (175.86 ticks)
Probing fixed 435 vars, tightened 2903 bounds.
Probing time = 1.19 sec. (883.45 ticks)
Tried aggregator 2 times.
MIP Presolve eliminated 966 rows and 870 columns.
MIP Presolve modified 2188 coefficients.
Aggregator did 56 substitutions.
Reduced MIP has 23550 rows, 20018 columns, and 65879 nonzeros.
Reduced MIP has 7850 binaries, 0 generals, 0 SOSs, and 0 indicators.
Presolve time = 0.11 sec. (64.17 ticks)
Probing fixed 0 vars, tightened 1 bounds.
Probing time = 0.06 sec. (19.73 ticks)
Clique table members: 6274.
MIP emphasis: balance optimality and feasibility.
MIP search method: dynamic search.
Parallel mode: opportunistic, using up to 32 threads.
Root relaxation solution time = 0.33 sec. (293.54 ticks)

        Nodes                                         Cuts/
   Node  Left     Objective  IInf  Best Integer    Best Bound    ItCnt     Gap

      0     0     3440.4497  1236                   3440.4497     6792         
*     0+    0                         3440.4497     3440.4497             0.00%
      0     0        cutoff           3440.4497     3440.4497     6792    0.00%
Elapsed time = 4.20 sec. (3489.60 ticks, tree = 0.01 MB, solutions = 1)

Root node processing (before b&c):
  Real time             =    4.22 sec. (3491.52 ticks)
Parallel b&c, 32 threads:
  Real time             =    0.00 sec. (0.00 ticks)
  Sync time (average)   =    0.00 sec.
  Wait time (average)   =    0.00 sec.
                          ------------
Total (root+branch&cut) =    4.22 sec. (3491.52 ticks)

Solution pool: 1 solution saved.

MIP - Integer optimal solution:  Objective =  3.4404496965e+03
Solution time =    4.25 sec.  Iterations = 6792  Nodes = 0
Deterministic time = 3491.68 ticks  (821.57 ticks/sec)

CPLEX> Incumbent solution written to file 'C:\Users\llavin\Desktop\test919\logs\tmp5yxck522.cplex.sol'.
CPLEX> NOTE: no warmstart specified for MIP iteration, default behavior is true
NOTE: resolving with all competitive generators using storage-only solution to warmstart
Solving...

Welcome to IBM(R) ILOG(R) CPLEX(R) Interactive Optimizer 12.9.0.0
  with Simplex, Mixed Integer & Barrier Optimizers
5725-A06 5725-A29 5724-Y48 5724-Y49 5724-Y54 5724-Y55 5655-Y21
Copyright IBM Corp. 1988, 2019.  All Rights Reserved.

Type 'help' for a list of available commands.
Type 'help' followed by a command name for more
information on commands.

CPLEX> Logfile 'cplex.log' closed.
Logfile 'C:\Users\llavin\Desktop\test919\logs\tmp_9j3sb0o.cplex.log' open.
CPLEX> New value for parallel optimization mode: -1
CPLEX> New value for mixed integer optimality gap tolerance: 0.01
CPLEX> New value for integrality tolerance: 1e-09
CPLEX> New value for feasibility tolerance: 0.1
CPLEX> New value for deterministic time limit in ticks: 100000
CPLEX> Problem 'C:\Users\llavin\Desktop\test919\logs\tmpp9hczq6v.pyomo.lp' read.
Read time = 0.27 sec. (13.88 ticks)
CPLEX> MIP start file 'C:\Users\llavin\Desktop\test919\logs\tmp_wseqqpd.cplex.mst' read.
CPLEX> Problem name         : C:\Users\llavin\Desktop\test919\logs\tmpp9hczq6v.pyomo.lp
Objective sense      : Maximize
Variables            :   54041  [Nneg: 1,  Box: 22526,  Free: 4416,
                                 Binary: 27098]
Objective nonzeros   :    9698
Linear constraints   :  122164  [Less: 40983,  Greater: 58612,  Equal: 22569]
  Nonzeros           :  288503
  RHS nonzeros       :   66980

Variables            : Min LB: -5000.000        Max UB: 1000000.       
Objective nonzeros   : Min   : 0.008333333      Max   : 723.7333       
Linear constraints   :
  Nonzeros           : Min   : 0.008333333      Max   : 1000000.       
  RHS nonzeros       : Min   : 0.008333333      Max   : 1000000.       
CPLEX> CPXPARAM_Parallel                                -1
CPXPARAM_Simplex_Tolerances_Feasibility          0.10000000000000001
CPXPARAM_DetTimeLimit                            100000
CPXPARAM_MIP_Tolerances_MIPGap                   0.01
CPXPARAM_MIP_Tolerances_Integrality              1.0000000000000001e-09
Warning:  No solution found from 1 MIP starts.
Retaining values of one MIP start for possible repair.
Tried aggregator 3 times.
MIP Presolve eliminated 88101 rows and 19677 columns.
MIP Presolve added 3373 rows and 0 columns.
MIP Presolve modified 22958 coefficients.
Aggregator did 12864 substitutions.
Reduced MIP has 24572 rows, 20944 columns, and 68849 nonzeros.
Reduced MIP has 8285 binaries, 0 generals, 0 SOSs, and 0 indicators.
Presolve time = 0.31 sec. (176.23 ticks)
Probing fixed 435 vars, tightened 2903 bounds.
Probing time = 1.20 sec. (883.45 ticks)
Tried aggregator 2 times.
MIP Presolve eliminated 966 rows and 870 columns.
MIP Presolve modified 2188 coefficients.
Aggregator did 56 substitutions.
Reduced MIP has 23550 rows, 20018 columns, and 65879 nonzeros.
Reduced MIP has 7850 binaries, 0 generals, 0 SOSs, and 0 indicators.
Presolve time = 0.11 sec. (64.17 ticks)
Probing fixed 0 vars, tightened 1 bounds.
Probing time = 0.05 sec. (19.73 ticks)
Clique table members: 6274.
MIP emphasis: balance optimality and feasibility.
MIP search method: dynamic search.
Parallel mode: opportunistic, using up to 32 threads.
Root relaxation solution time = 0.34 sec. (293.54 ticks)

        Nodes                                         Cuts/
   Node  Left     Objective  IInf  Best Integer    Best Bound    ItCnt     Gap

      0     0     3440.4497  1236                   3440.4497     6792         
*     0+    0                         3440.4497     3440.4497             0.00%
      0     0        cutoff           3440.4497     3440.4497     6792    0.00%
Elapsed time = 4.41 sec. (3517.01 ticks, tree = 0.01 MB, solutions = 1)

Root node processing (before b&c):
  Real time             =    4.42 sec. (3518.95 ticks)
Parallel b&c, 32 threads:
  Real time             =    0.00 sec. (0.00 ticks)
  Sync time (average)   =    0.00 sec.
  Wait time (average)   =    0.00 sec.
                          ------------
Total (root+branch&cut) =    4.42 sec. (3518.95 ticks)

Solution pool: 1 solution saved.

MIP - Integer optimal solution:  Objective =  3.4404496965e+03
Solution time =    4.42 sec.  Iterations = 6792  Nodes = 0
Deterministic time = 3519.11 ticks  (796.00 ticks/sec)

CPLEX> Incumbent solution written to file 'C:\Users\llavin\Desktop\test919\logs\tmp8cjt_glt.cplex.sol'.
CPLEX> Exporting results... 
